% sample03 from https://www.csplib.org/Problems/prob059/data/sampleinstances.zip
Resources = {cpu,ram,io};
nMachines = 2;
IdlePower = [1500,1200];
UpCost    = [1,1];
DownCost  = [1,1];
Capacity  = [|
   2506, 2406, 2460 |
   2448, 2395, 2533 |];
nTimeSteps = 288;  % every 5 minutes for the next 24 hours
EnergyCost = [0.03466, 0.03466, 0.03466, 0.03466, 0.03466, 0.03466, 0.03400, 0.03400, 0.03400, 0.03400, 0.03400, 0.03400, 0.03399, 0.03399, 0.03399, 0.03399, 0.03399, 0.03399, 0.03129, 0.03129, 0.03129, 0.03129, 0.03129, 0.03129, 0.03062, 0.03062, 0.03062, 0.03062, 0.03062, 0.03062, 0.03196, 0.03196, 0.03196, 0.03196, 0.03196, 0.03196, 0.03129, 0.03129, 0.03129, 0.03129, 0.03129, 0.03129, 0.03062, 0.03062, 0.03062, 0.03062, 0.03062, 0.03062, 0.03062, 0.03062, 0.03062, 0.03062, 0.03062, 0.03062, 0.03062, 0.03062, 0.03062, 0.03062, 0.03062, 0.03062, 0.03062, 0.03062, 0.03062, 0.03062, 0.03062, 0.03062, 0.03062, 0.03062, 0.03062, 0.03062, 0.03062, 0.03062, 0.03476, 0.03476, 0.03476, 0.03476, 0.03476, 0.03476, 0.03476, 0.03476, 0.03476, 0.03476, 0.03476, 0.03476, 0.04261, 0.04261, 0.04261, 0.04261, 0.04261, 0.04261, 0.04261, 0.04261, 0.04261, 0.04261, 0.04261, 0.04261, 0.03476, 0.03476, 0.03476, 0.03476, 0.03476, 0.03476, 0.03476, 0.03476, 0.03476, 0.03476, 0.03476, 0.03476, 0.04300, 0.04300, 0.04300, 0.04300, 0.04300, 0.04300, 0.04732, 0.04732, 0.04732, 0.04732, 0.04732, 0.04732, 0.08093, 0.08093, 0.08093, 0.08093, 0.08093, 0.08093, 0.08619, 0.08619, 0.08619, 0.08619, 0.08619, 0.08619, 0.09108, 0.09108, 0.09108, 0.09108, 0.09108, 0.09108, 0.08696, 0.08696, 0.08696, 0.08696, 0.08696, 0.08696, 0.08619, 0.08619, 0.08619, 0.08619, 0.08619, 0.08619, 0.08619, 0.08619, 0.08619, 0.08619, 0.08619, 0.08619, 0.08619, 0.08619, 0.08619, 0.08619, 0.08619, 0.08619, 0.08619, 0.08619, 0.08619, 0.08619, 0.08619, 0.08619, 0.08587, 0.08587, 0.08587, 0.08587, 0.08587, 0.08587, 0.08587, 0.08587, 0.08587, 0.08587, 0.08587, 0.08587, 0.08587, 0.08587, 0.08587, 0.08587, 0.08587, 0.08587, 0.08472, 0.08472, 0.08472, 0.08472, 0.08472, 0.08472, 0.08587, 0.08587, 0.08587, 0.08587, 0.08587, 0.08587, 0.08587, 0.08587, 0.08587, 0.08587, 0.08587, 0.08587, 0.08619, 0.08619, 0.08619, 0.08619, 0.08619, 0.08619, 0.09886, 0.09886, 0.09886, 0.09886, 0.09886, 0.09886, 0.08882, 0.08882, 0.08882, 0.08882, 0.08882, 0.08882, 0.08619, 0.08619, 0.08619, 0.08619, 0.08619, 0.08619, 0.08619, 0.08619, 0.08619, 0.08619, 0.08619, 0.08619, 0.08587, 0.08587, 0.08587, 0.08587, 0.08587, 0.08587, 0.08587, 0.08587, 0.08587, 0.08587, 0.08587, 0.08587, 0.07767, 0.07767, 0.07767, 0.07767, 0.07767, 0.07767, 0.06492, 0.06492, 0.06492, 0.06492, 0.06492, 0.06492, 0.06492, 0.06492, 0.06492, 0.06492, 0.06492, 0.06492, 0.06329, 0.06329, 0.06329, 0.06329, 0.06329, 0.06329, 0.06126, 0.06126, 0.06126, 0.06126, 0.06126, 0.06126, 0.06329, 0.06329, 0.06329, 0.06329, 0.06329, 0.06329, 0.06329, 0.06329, 0.06329, 0.06329, 0.06329, 0.06329];
nJobs = 100;
Duration = [30, 3, 126, 6, 2, 3, 1, 16, 2, 56, 102, 19, 17, 140, 104, 12, 62, 23, 55, 2, 20, 6, 24, 71, 2, 124, 56, 9, 43, 11, 96, 91, 29, 70, 23, 130, 12, 2, 79, 97, 6, 10, 54, 71, 79, 38, 12, 23, 39, 18, 71, 18, 18, 14, 3, 11, 6, 30, 58, 9, 28, 124, 14, 82, 117, 10, 105, 32, 5, 84, 66, 23, 53, 19, 52, 31, 26, 5, 46, 17, 10, 24, 129, 22, 66, 139, 74, 4, 95, 108, 152, 118, 2, 60, 69, 133, 113, 107, 80, 85];
EarliestS = [4, 0, 3, 43, 25, 141, 0, 38, 0, 163, 1, 34, 108, 11, 6, 264, 42, 159, 153, 181, 186, 2, 46, 6, 84, 129, 74, 172, 12, 206, 8, 131, 145, 14, 137, 13, 3, 175, 147, 76, 33, 197, 13, 2, 117, 29, 117, 55, 3, 93, 163, 27, 140, 9, 1, 179, 3, 156, 39, 167, 195, 3, 9, 0, 45, 91, 9, 117, 15, 0, 6, 0, 158, 143, 123, 89, 101, 21, 9, 46, 48, 139, 23, 85, 97, 2, 15, 0, 1, 101, 22, 5, 0, 38, 118, 6, 4, 1, 46, 95];
LatestEnd = [288, 68, 233, 280, 196, 225, 46, 268, 253, 287, 161, 211, 221, 252, 183, 287, 142, 207, 271, 258, 279, 62, 176, 201, 141, 271, 281, 210, 218, 255, 269, 284, 209, 248, 206, 279, 232, 235, 288, 256, 245, 276, 272, 119, 287, 186, 288, 256, 273, 214, 259, 239, 283, 214, 68, 257, 196, 212, 288, 264, 273, 154, 90, 258, 253, 224, 274, 255, 236, 275, 158, 185, 216, 251, 272, 284, 263, 118, 212, 286, 284, 263, 216, 279, 285, 172, 155, 236, 255, 287, 265, 248, 170, 266, 288, 170, 148, 201, 275, 264];
Energy = [6096, 555, 653, 772, 1443, 1427, 2500, 806, 4789, 451, 2606, 1127, 180, 289, 225, 2364, 1061, 1409, 723, 446, 550, 590, 430, 461, 176, 191, 521, 959, 688, 1222, 912, 891, 2265, 472, 2434, 1652, 813, 1150, 863, 2639, 626, 98, 727, 631, 1451, 219, 506, 971, 402, 593, 1051, 1111, 2384, 400, 2384, 7, 706, 1578, 3025, 7, 832, 721, 283, 799, 50, 852, 1151, 1330, 55, 393, 755, 982, 1384, 1328, 298, 184, 903, 372, 1074, 1442, 731, 783, 370, 2054, 335, 90, 697, 1656, 654, 2080, 2013, 103, 4828, 382, 1174, 2695, 340, 394, 411, 84];
Requirement = [|
   1282, 2092, 2174 |
    175,   30,   30 |
    110,   92,  622 |
    128,  136,  708 |
    239,  223, 1374 |
    214,  959,  408 |
    703,  520,  158 |
    138,  130,  729 |
    871, 1970, 2170 |
     81,   72,  382 |
    744,  458,  211 |
    356,   62,   56 |
     57,    9,   10 |
     46,  136,  151 |
     30,  189,   33 |
    743,  144,  123 |
    150,  850,  161 |
    443,   77,   86 |
    125,  121,  637 |
     71,   82,  425 |
    171,   38,   35 |
     88,  449,   93 |
     72,   72,  395 |
    143,   34,   29 |
     28,   33,  168 |
     31,   32,  183 |
     89,   97,  453 |
    142,  741,  141 |
    103,  418,  264 |
    199,  211, 1155 |
    160,  133,  817 |
    136,  148,  914 |
    358, 1505,  544 |
    147,   29,   34 |
    403, 1533,  583 |
    380,  703,  158 |
    120,  613,  146 |
    200,  216,  970 |
    273,   45,   43 |
    826,  147,  182 |
    109,   99,  555 |
     17,   18,   83 |
    110,  420,  304 |
    197,   40,   39 |
    456,   87,   77 |
     34,  161,   33 |
    157,   33,   38 |
    303,   59,   65 |
     55,  330,   61 |
    103,   86,  539 |
    330,   58,   66 |
    346,   73,   73 |
    751,  132,  132 |
     65,  283,   57 |
    673,  470,  172 |
      1,    6,    1 |
    113,  447,  194 |
    347,  734,  169 |
    581, 1698,  476 |
      1,    6,    1 |
    119,  663,  121 |
    115,  122,  701 |
     46,  123,  157 |
    252,   43,   43 |
      8,   36,    8 |
    141,  150,  785 |
    366,   53,   56 |
    190,  920,  406 |
      9,   38,    8 |
    123,   24,   23 |
    239,   36,   43 |
    309,   54,   58 |
    212,  967,  310 |
    205,  838,  419 |
     84,   59,   22 |
     58,   11,    9 |
    139,  147,  923 |
     59,  270,   53 |
    172,  774,  152 |
    316,  673,  159 |
    120,  119,  695 |
    246,   46,   43 |
     57,  273,   58 |
    500,  741,  201 |
     57,   54,  306 |
     28,    6,    6 |
    220,   36,   39 |
    242, 1140,  477 |
    103,  123,  626 |
    654,  123,  113 |
    624,  140,  139 |
     18,   16,   92 |
   1518,  271,  281 |
    120,   21,   25 |
    198,  200, 1066 |
    844,  158,  170 |
     58,   52,  314 |
     54,  324,   59 |
     68,   68,  386 |
     26,    6,    6 |];